Calculando min-max:
[[0, 0, 1, 1, 1, 1, 1, 1, 1, 1], [0, 1, 1, 1, 1, 1, 1, 1, 1, 1], [0, 1, 1, 1, 1, 1, 1, 1, 1, 1], [0, 1, 1, 1, 1, 1, 1, 1, 1, 0], [0, 1, 1, 1, 1, 1, 1, 1, 0, 0], [0, 1, 1, 1, 1, 1, 1, 1, 0, 0], [0, 1, 1, 1, 1, 1, 1, 1, 0, 0], [0, 1, 1, 1, 1, 1, 1, 1, 0, 0], [0, 0, 1, 1, 1, 1, 1, 1, 0, 0], [0, 0, 0, 1, 1, 1, 1, 1, 0, 0]]
Criando instancia min-C...
Instancia criada.
Resolvendo instancia...

Welcome to IBM(R) ILOG(R) CPLEX(R) Interactive Optimizer 22.1.1.0
  with Simplex, Mixed Integer & Barrier Optimizers
5725-A06 5725-A29 5724-Y48 5724-Y49 5724-Y54 5724-Y55 5655-Y21
Copyright IBM Corp. 1988, 2022.  All Rights Reserved.

Type 'help' for a list of available commands.
Type 'help' followed by a command name for more
information on commands.

CPLEX> Logfile 'cplex.log' closed.
Logfile 'C:\Users\LUCASP~1\AppData\Local\Temp\tmp21h0cqs8.cplex.log' open.
CPLEX> Problem 'C:\Users\LUCASP~1\AppData\Local\Temp\tmphb_estwy.pyomo.lp' read.
Read time = 0.02 sec. (0.77 ticks)
CPLEX> Problem name         : C:\Users\LUCASP~1\AppData\Local\Temp\tmphb_estwy.pyomo.lp
Objective sense      : Minimize
Variables            :    5231  [Binary: 5220,  General Integer: 11]
Objective nonzeros   :     100
Linear constraints   :    8244  [Less: 4583,  Greater: 1,  Equal: 3660]
  Nonzeros           :   20785
  RHS nonzeros       :    1592

Variables            : Min LB: 0.000000         Max UB: 1.000000       
Objective nonzeros   : Min   : 1.000000         Max   : 1.000000       
Linear constraints   :
  Nonzeros           : Min   : 1.000000         Max   : 100000.0       
  RHS nonzeros       : Min   : 1.000000         Max   : 10.00000       
CPLEX> Version identifier: 22.1.1.0 | 2022-11-27 | 9160aff4d
Tried aggregator 3 times.
MIP Presolve eliminated 5148 rows and 3618 columns.
MIP Presolve added 40 rows and 0 columns.
MIP Presolve modified 442 coefficients.
Aggregator did 600 substitutions.
Reduced MIP has 2536 rows, 1013 columns, and 7086 nonzeros.
Reduced MIP has 1003 binaries, 10 generals, 0 SOSs, and 0 indicators.
Presolve time = 0.03 sec. (29.46 ticks)
Found incumbent of value 5.000000 after 0.06 sec. (41.66 ticks)
Probing time = 0.00 sec. (3.66 ticks)
Tried aggregator 1 time.
Detecting symmetries...
MIP Presolve eliminated 20 rows and 0 columns.
Reduced MIP has 2516 rows, 1013 columns, and 7026 nonzeros.
Reduced MIP has 1003 binaries, 10 generals, 0 SOSs, and 0 indicators.
Presolve time = 0.02 sec. (12.03 ticks)
Probing time = 0.00 sec. (3.54 ticks)
Clique table members: 4499.
MIP emphasis: balance optimality and feasibility.
MIP search method: dynamic search.
Parallel mode: deterministic, using up to 8 threads.
Root relaxation solution time = 0.02 sec. (5.43 ticks)

        Nodes                                         Cuts/
   Node  Left     Objective  IInf  Best Integer    Best Bound    ItCnt     Gap

*     0+    0                            5.0000        0.0000           100.00%
      0     0        1.1000    14        5.0000        1.1000      132   78.00%
      0     0        2.3333     9        5.0000     Cuts: 131      190   53.33%
      0     0        3.2333    20        5.0000     Cuts: 119      227   35.33%
      0     0        cutoff              5.0000                    227    0.00%
Elapsed time = 0.19 sec. (104.78 ticks, tree = 0.01 MB, solutions = 1)

GUB cover cuts applied:  2
Clique cuts applied:  15
Cover cuts applied:  6
Implied bound cuts applied:  176
Zero-half cuts applied:  5
Lift and project cuts applied:  2
Gomory fractional cuts applied:  6

Root node processing (before b&c):
  Real time             =    0.19 sec. (104.96 ticks)
Parallel b&c, 8 threads:
  Real time             =    0.00 sec. (0.00 ticks)
  Sync time (average)   =    0.00 sec.
  Wait time (average)   =    0.00 sec.
                          ------------
Total (root+branch&cut) =    0.19 sec. (104.96 ticks)

Solution pool: 1 solution saved.

MIP - Integer optimal solution:  Objective =  5.0000000000e+00
Solution time =    0.19 sec.  Iterations = 227  Nodes = 0
Deterministic time = 104.97 ticks  (561.35 ticks/sec)

CPLEX> Incumbent solution written to file 'C:\Users\LUCASP~1\AppData\Local\Temp\tmpbfg1a8o0.cplex.sol'.
CPLEX> Maximos: {'E': 7.6198, 'C': 73}
Minimos: {'E': 0.611782, 'C': 5.0}
Resolvendo instancia...

Welcome to IBM(R) ILOG(R) CPLEX(R) Interactive Optimizer 22.1.1.0
  with Simplex, Mixed Integer & Barrier Optimizers
5725-A06 5725-A29 5724-Y48 5724-Y49 5724-Y54 5724-Y55 5655-Y21
Copyright IBM Corp. 1988, 2022.  All Rights Reserved.

Type 'help' for a list of available commands.
Type 'help' followed by a command name for more
information on commands.

CPLEX> Logfile 'cplex.log' closed.
Logfile 'C:\Users\LUCASP~1\AppData\Local\Temp\tmpox0kmo2t.cplex.log' open.
CPLEX> Problem 'C:\Users\LUCASP~1\AppData\Local\Temp\tmpvrnr4caw.pyomo.lp' read.
Read time = 0.02 sec. (0.77 ticks)
CPLEX> Problem name         : C:\Users\LUCASP~1\AppData\Local\Temp\tmpvrnr4caw.pyomo.lp
Objective sense      : Minimize
Variables            :    5232  [Fix: 1,  Binary: 5220,  General Integer: 11]
Objective nonzeros   :     131
Linear constraints   :    8244  [Less: 4583,  Greater: 1,  Equal: 3660]
  Nonzeros           :   20785
  RHS nonzeros       :    1592

Variables            : Min LB: 0.000000         Max UB: 1.000000       
Objective nonzeros   : Min   : 0.003676471      Max   : 0.08154731     
Linear constraints   :
  Nonzeros           : Min   : 1.000000         Max   : 100000.0       
  RHS nonzeros       : Min   : 1.000000         Max   : 10.00000       
CPLEX> Version identifier: 22.1.1.0 | 2022-11-27 | 9160aff4d
Tried aggregator 3 times.
MIP Presolve eliminated 5132 rows and 3619 columns.
MIP Presolve modified 444 coefficients.
Aggregator did 600 substitutions.
Reduced MIP has 2512 rows, 1009 columns, and 7014 nonzeros.
Reduced MIP has 999 binaries, 10 generals, 0 SOSs, and 0 indicators.
Presolve time = 0.05 sec. (29.66 ticks)
Found incumbent of value 0.000000 after 0.06 sec. (42.27 ticks)
Probing time = 0.00 sec. (3.67 ticks)
Tried aggregator 1 time.
Detecting symmetries...
MIP Presolve eliminated 11 rows and 0 columns.
Reduced MIP has 2501 rows, 998 columns, and 6981 nonzeros.
Reduced MIP has 988 binaries, 10 generals, 0 SOSs, and 0 indicators.
Presolve time = 0.00 sec. (9.70 ticks)
Probing time = 0.00 sec. (3.59 ticks)
Clique table members: 4469.
MIP emphasis: balance optimality and feasibility.
MIP search method: dynamic search.
Parallel mode: deterministic, using up to 8 threads.
Root relaxation solution time = 0.03 sec. (12.71 ticks)

        Nodes                                         Cuts/
   Node  Left     Objective  IInf  Best Integer    Best Bound    ItCnt     Gap

*     0+    0                            0.0000       -0.3155              --- 
      0     0       -0.0386    76        0.0000       -0.0386      315     --- 
*     0+    0                           -0.0063       -0.0386           508.68%
      0     0       -0.0374    83       -0.0063      Cuts: 45      414  489.56%
      0     0       -0.0369    83       -0.0063      Cuts: 77      482  481.60%
      0     0       -0.0363    74       -0.0063     Cuts: 108      545  472.22%
      0     0       -0.0362    88       -0.0063      Cuts: 93      573  470.87%
      0     0       -0.0361    94       -0.0063     Cuts: 109      608  470.03%
      0     0       -0.0361    99       -0.0063      Cuts: 85      709  469.25%
*     0+    0                           -0.0217       -0.0361            66.27%
      0     0        cutoff             -0.0217       -0.0217      795    0.00%
Elapsed time = 0.55 sec. (231.56 ticks, tree = 0.01 MB, solutions = 3)

Implied bound cuts applied:  319
Mixed integer rounding cuts applied:  1
Zero-half cuts applied:  22
Gomory fractional cuts applied:  2

Root node processing (before b&c):
  Real time             =    0.55 sec. (231.81 ticks)
Parallel b&c, 8 threads:
  Real time             =    0.00 sec. (0.00 ticks)
  Sync time (average)   =    0.00 sec.
  Wait time (average)   =    0.00 sec.
                          ------------
Total (root+branch&cut) =    0.55 sec. (231.81 ticks)

Solution pool: 3 solutions saved.

MIP - Integer optimal solution:  Objective = -2.1693818298e-02
Solution time =    0.56 sec.  Iterations = 795  Nodes = 0
Deterministic time = 231.83 ticks  (411.77 ticks/sec)

CPLEX> Incumbent solution written to file 'C:\Users\LUCASP~1\AppData\Local\Temp\tmpjfqw96z9.cplex.sol'.
CPLEX> 
Resultados:

E: 0.06421216383862027 -- 1.061782 mA
C: 0.27941176470588236 -- 24.0 points
WEIGHTED: -0.021693818297505385
Total Solving time: 0.6452128887176514 s
Total elapsed time since execution: 20.306023836135864
